KPOINTS BSC FILE
117
Reciprocal
    0.00000000000000    0.00000000000000    0.00000000000000             0  $\Gamma$
    0.00000000000000    0.00000000000000    0.04166666666667             0
    0.00000000000000    0.00000000000000    0.08333333333333             0
    0.00000000000000    0.00000000000000    0.12500000000000             0
    0.00000000000000    0.00000000000000    0.16666666666667             0
    0.00000000000000    0.00000000000000    0.20833333333333             0
    0.00000000000000    0.00000000000000    0.25000000000000             0
    0.00000000000000    0.00000000000000    0.29166666666667             0
    0.00000000000000    0.00000000000000    0.33333333333333             0
    0.00000000000000    0.00000000000000    0.37500000000000             0
    0.00000000000000    0.00000000000000    0.41666666666667             0
    0.00000000000000    0.00000000000000    0.45833333333333             0
    0.00000000000000    0.00000000000000    0.50000000000000             0  Y 
    0.00000000000000    0.03836923076923    0.50010223076923             0
    0.00000000000000    0.07673846153846    0.50020446153846             0
    0.00000000000000    0.11510769230769    0.50030669230769             0
    0.00000000000000    0.15347692307692    0.50040892307692             0
    0.00000000000000    0.19184615384615    0.50051115384615             0
    0.00000000000000    0.23021538461538    0.50061338461538             0
    0.00000000000000    0.26858461538462    0.50071561538462             0
    0.00000000000000    0.30695384615385    0.50081784615385             0
    0.00000000000000    0.34532307692308    0.50092007692308             0
    0.00000000000000    0.38369230769231    0.50102230769231             0
    0.00000000000000    0.42206153846154    0.50112453846154             0
    1.00000000000000    0.46043076923077    0.50122676923077             0
    0.00000000000000    0.49880000000000    0.50132900000000             0
    0.00000000000000    0.50000000000000    0.50000000000000             0  C
    0.03846153846154    0.50000000000000    0.50000000000000             0
    0.07692307692308    0.50000000000000    0.50000000000000             0
    0.11538461538462    0.50000000000000    0.50000000000000             0
    0.15384615384615    0.50000000000000    0.50000000000000             0
    0.19230769230769    0.50000000000000    0.50000000000000             0
    0.23076923076923    0.50000000000000    0.50000000000000             0
    0.26923076923077    0.50000000000000    0.50000000000000             0
    0.30769230769231    0.50000000000000    0.50000000000000             0
    0.34615384615385    0.50000000000000    0.50000000000000             0
    0.38461538461538    0.50000000000000    0.50000000000000             0
    0.42307692307692    0.50000000000000    0.50000000000000             0
    0.46153846153846    0.50000000000000    0.50000000000000             0
    0.50000000000000    0.50000000000000    0.50000000000000             0 E
    0.50000000000000    0.50120000000000    0.49867100000000             0
    0.50000000000000    0.50110000000000    0.45711508333333             0
    0.50000000000000    0.50100000000000    0.41555916666667             0
    0.50000000000000    0.50090000000000    0.37400325000000             0
    0.50000000000000    0.50080000000000    0.33244733333333             0
    0.50000000000000    0.50070000000000    0.29089141666667             0
    0.50000000000000    0.50060000000000    0.24933550000000             0
    0.50000000000000    0.50050000000000    0.20777958333333             0
    0.50000000000000    0.50040000000000    0.16622366666667             0
    0.50000000000000    0.50030000000000    0.12466775000000             0
    0.50000000000000    0.50020000000000    0.08311183333333             0
    0.50000000000000    0.50010000000000    0.04155591666667             0
    0.50000000000000    0.50000000000000   -0.00000000000000             0 A
    0.46153846153846    0.50000000000000   -0.00000000000000             0
    0.42307692307692    0.50000000000000   -0.00000000000000             0
    0.38461538461538    0.50000000000000   -0.00000000000000             0
    0.34615384615385    0.50000000000000   -0.00000000000000             0
    0.30769230769231    0.50000000000000   -0.00000000000000             0
    0.26923076923077    0.50000000000000   -0.00000000000000             0
    0.23076923076923    0.50000000000000   -0.00000000000000             0
    0.19230769230769    0.50000000000000   -0.00000000000000             0
    0.15384615384615    0.50000000000000   -0.00000000000000             0
    0.11538461538462    0.50000000000000   -0.00000000000000             0
    0.07692307692308    0.50000000000000   -0.00000000000000             0
    0.03846153846154    0.50000000000000   -0.00000000000000             0
    0.00000000000000    0.50000000000000    0.00000000000000             0 X
    0.00000000000000    0.46153846153846    0.00000000000000             0
    0.00000000000000    0.42307692307692    0.00000000000000             0
    0.00000000000000    0.38461538461538    0.00000000000000             0
    0.00000000000000    0.34615384615385    0.00000000000000             0
    0.00000000000000    0.30769230769231    0.00000000000000             0
    0.00000000000000    0.26923076923077    0.00000000000000             0
    0.00000000000000    0.23076923076923    0.00000000000000             0
    0.00000000000000    0.19230769230769    0.00000000000000             0
    0.00000000000000    0.15384615384615    0.00000000000000             0
    0.00000000000000    0.11538461538462    0.00000000000000             0
    0.00000000000000    0.07692307692308    0.00000000000000             0
    0.00000000000000    0.03846153846154    0.00000000000000             0
   -0.00000000000000   -0.00000000000000   -0.00000000000000             0 $\Gamma$
    0.03846153846154   -0.00000000000000   -0.00000000000000             0
    0.07692307692308   -0.00000000000000   -0.00000000000000             0
    0.11538461538462   -0.00000000000000   -0.00000000000000             0
    0.15384615384615   -0.00000000000000   -0.00000000000000             0
    0.19230769230769   -0.00000000000000   -0.00000000000000             0
    0.23076923076923   -0.00000000000000   -0.00000000000000             0
    0.26923076923077   -0.00000000000000   -0.00000000000000             0
    0.30769230769231   -0.00000000000000   -0.00000000000000             0
    0.34615384615385   -0.00000000000000   -0.00000000000000             0
    0.38461538461538   -0.00000000000000   -0.00000000000000             0
    0.42307692307692   -0.00000000000000   -0.00000000000000             0
    0.46153846153846   -0.00000000000000   -0.00000000000000             0
    0.50000000000000   -0.00000000000000    0.00000000000000             0 Z
    0.50000000000000   -0.00000000000000    0.04166666666667             0
    0.50000000000000   -0.00000000000000    0.08333333333333             0
    0.50000000000000   -0.00000000000000    0.12500000000000             0
    0.50000000000000   -0.00000000000000    0.16666666666667             0
    0.50000000000000   -0.00000000000000    0.20833333333333             0
    0.50000000000000   -0.00000000000000    0.25000000000000             0
    0.50000000000000   -0.00000000000000    0.29166666666667             0
    0.50000000000000   -0.00000000000000    0.33333333333333             0
    0.50000000000000   -0.00000000000000    0.37500000000000             0
    0.50000000000000   -0.00000000000000    0.41666666666667             0
    0.50000000000000   -0.00000000000000    0.45833333333333             0
    0.50000000000000    0.00000000000000    0.50000000000000             0 D
    0.50000000000000    0.03836923076923    0.50010223076923             0
    0.50000000000000    0.07673846153846    0.50020446153846             0
    0.50000000000000    0.11510769230769    0.50030669230769             0
    0.50000000000000    0.15347692307692    0.50040892307692             0
    0.50000000000000    0.19184615384615    0.50051115384615             0
    0.50000000000000    0.23021538461538    0.50061338461538             0
    0.50000000000000    0.26858461538462    0.50071561538462             0
    0.50000000000000    0.30695384615385    0.50081784615385             0
    0.50000000000000    0.34532307692308    0.50092007692308             0
    0.50000000000000    0.38369230769231    0.50102230769231             0
    0.50000000000000    0.42206153846154    0.50112453846154             0
    0.50000000000000    0.46043076923077    0.50122676923077             0
    0.50000000000000    0.49880000000000    0.50132900000000             0 M 
