&CONTROL
/
&SYSTEM
   ntyp             = 3
   nat              = 5
   ibrav            = 0
/
&ELECTRONS
/
&IONS
/
&CELL
/

ATOMIC_SPECIES
Sr 87.62 Sr_dummy.UPF
Ti 47.867 Ti_dummy.UPF
O 15.999 O_dummy.UPF

K_POINTS gamma

CELL_PARAMETERS angstrom
3.94513000000000 0.00000000000000 0.00000000000000
0.00000000000000 3.94513000000000 0.00000000000000
0.00000000000000 0.00000000000000 3.94513000000000

ATOMIC_POSITIONS angstrom
Sr 0.0000000000 0.0000000000 0.0000000000 
Ti 1.9725650000 1.9725650000 1.9725650000 
O 1.9725650000 0.0000000000 1.9725650000 
O 1.9725650000 1.9725650000 0.0000000000 
O 0.0000000000 1.9725650000 1.9725650000 

