&CONTROL
                       title = 'slab-s25v20-001-66.scf-pmg.cif'
                 calculation = 'scf'
                restart_mode = 'from_scratch'
                      outdir = './'
                  pseudo_dir = '/home/wwwennie/bin/pseudo/'
                      prefix = 'slab-s25v20-001-66.scf-pmg'
                   verbosity = 'default'
               etot_conv_thr = 0.1D-5
               forc_conv_thr = 0.1D-4
                       nstep = 400
                     tstress = .true.
                     tprnfor = .true.
 /
 &SYSTEM
             ibrav = 0
                    nat = 72
                    ntyp = 3
                    ecutwfc = 90
                   !nosym = .FALSE.
                   occupations =  'fixed'
                   smearing =  'mv'
                   degauss = 0.0001
                    nspin = 1
                    nbnd = 448 
                   !input_dft ='pbe0'
                   !nqx1 = 2, nqx2 = 2, nqx3 = 1,
                   !screening_parameter = 0.106
                   !exx_fraction = 0.1449
                   !exxdiv_treatment =  'gygi-baldereschi'
                   !ecutfock = 180
                   !!ecutvcut = 0.7
                   lda_plus_u = .TRUE.  Hubbard_U(2) = 2.7
                   !starting_magnetization(2) = 0.d0
                   !tot_magnetization = 0.d0
 /
 &ELECTRONS
            electron_maxstep = 200
                    conv_thr = 1.0D-7
              diago_thr_init = 1e-4
                 startingpot = 'atomic'
                 startingwfc = 'atomic+random'
                 mixing_mode = 'local-TF'
                 mixing_beta = 0.3
             diagonalization = 'david'
 /
&IONS
                ion_dynamics = 'bfgs'
 /

ATOMIC_SPECIES
   Bi  208.9804000000  Bi_ONCV_PBE-marton.upf
    V   50.9415000000  V_ONCV_PBE-marton.upf
    O   15.9994000000  O_ONCV_PBE-marton.upf

K_POINTS automatic
4 4 2   0 0 0

CELL_PARAMETERS
     9.77407390807297      0.00000000000000      0.00000000000000
     0.00000000000000      9.77407390807297      0.00000000000000
     0.00000000000001      0.00000000000001    111.21406679188443

ATOMIC_POSITIONS (crystal)
Bi      -0.000000000   0.250000000   0.325798302
Bi      -0.000000000   0.750000000   0.273515960
Bi       0.500000000   0.750000000   0.227243980
Bi       0.500000000   0.250000000   0.374694453
V       -0.000000000   0.250000000   0.225962504
V       -0.000000000   0.750000000   0.374755702
V        0.500000000   0.750000000   0.325717410
V        0.500000000   0.250000000   0.273674526
O        0.160567053   0.507312859   0.241550429
O        0.858550050   0.498793735   0.359183215
O        0.356514508   0.496665991   0.341154976
O        0.647977346   0.507488647   0.258437284
O        0.258343228   0.381364467   0.289715713
O        0.744842124   0.613733490   0.309959870
O        0.246797260   0.612703708   0.390483213
O        0.776068333   0.399173814   0.210092477
O        0.643485492   1.003334009   0.341154976
O        0.352022654  -0.007488647   0.258437284
O        0.839432947  -0.007312859   0.241550429
O        0.141449950   1.001206265   0.359183215
O        0.753203740   0.887296292   0.390483213
O        0.223930667   0.100826186   0.210092477
O        0.741657772   0.118634533   0.289715713
O        0.255156876   0.886267510   0.309959870
Bi      -0.000000000   0.250000000   0.525136540
Bi       0.000000000   0.750000000   0.474863460
Bi       0.500000000   0.750000000   0.425305862
Bi       0.500000000   0.250000000   0.574694138
V       -0.000000000   0.250000000   0.425265265
V        0.000000000   0.750000000   0.574734735
V        0.500000000   0.750000000   0.525059134
V        0.500000000   0.250000000   0.474940866
O        0.141001324   0.500390021   0.440824543
O        0.858998676   0.499609979   0.559175457
O        0.359211091   0.500593038   0.540689650
O        0.640788909   0.499406962   0.459310350
O        0.252294590   0.389518342   0.490609203
O        0.747705410   0.610481658   0.509390797
O        0.247582829   0.611392942   0.590406480
O        0.752417171   0.388607058   0.409593520
O        0.640788909   0.999406962   0.540689650
O        0.359211091   0.000593038   0.459310350
O        0.858998676  -0.000390021   0.440824543
O        0.141001324   1.000390021   0.559175457
O        0.752418171   0.888607058   0.590406480
O        0.247581829   0.111392942   0.409593520
O        0.747706410   0.110480658   0.490609203
O        0.252293590   0.889519342   0.509390797
Bi       0.000000000   0.250000000   0.726484040
Bi       0.000000000   0.750000000   0.674201698
Bi       0.500000000   0.750000000   0.625305547
Bi       0.500000000   0.250000000   0.772756020
V        0.000000000   0.250000000   0.625244298
V        0.000000000   0.750000000   0.774037496
V        0.500000000   0.750000000   0.726325474
V        0.500000000   0.250000000   0.674282590
O        0.141449950   0.501206265   0.640816785
O        0.839432947   0.492687141   0.758449571
O        0.352022654   0.492511353   0.741562716
O        0.643485492   0.503334009   0.658845024
O        0.255157876   0.386266510   0.690040130
O        0.741656772   0.618635533   0.710284287
O        0.223931667   0.600826186   0.789907523
O        0.753202740   0.387296292   0.609516787
O        0.647977346   1.007488647   0.741562716
O        0.356514508  -0.003334009   0.658845024
O        0.858550050  -0.001206265   0.640816785
O        0.160567053   1.007312859   0.758449571
O        0.776069333   0.899173814   0.789907523
O        0.246796260   0.112703708   0.609516787
O        0.744843124   0.113732490   0.690040130
O        0.258342228   0.881365467   0.710284287

